c Reduced graph for p27 generated by Cyril Grelier
p edge 44 174
e 1 7
e 1 8
e 1 9
e 1 10
e 1 11
e 1 12
e 1 13
e 1 18
e 1 31
e 2 3
e 2 4
e 2 5
e 2 6
e 2 14
e 2 15
e 2 19
e 2 28
e 2 38
e 3 4
e 3 5
e 3 6
e 3 11
e 3 14
e 3 22
e 3 25
e 3 39
e 4 5
e 4 6
e 4 12
e 4 14
e 4 23
e 4 26
e 4 33
e 5 6
e 5 14
e 5 16
e 5 20
e 5 29
e 5 34
e 6 14
e 6 17
e 6 21
e 6 30
e 6 40
e 7 8
e 7 9
e 7 10
e 7 15
e 7 16
e 7 17
e 7 18
e 7 32
e 8 9
e 8 10
e 8 18
e 8 19
e 8 20
e 8 21
e 8 36
e 9 10
e 9 18
e 9 22
e 9 23
e 9 24
e 9 37
e 10 18
e 10 25
e 10 26
e 10 27
e 10 42
e 11 12
e 11 13
e 11 22
e 11 25
e 11 31
e 11 39
e 12 13
e 12 23
e 12 26
e 12 31
e 12 33
e 13 24
e 13 27
e 13 31
e 13 35
e 13 41
e 14 36
e 14 37
e 14 43
e 15 16
e 15 17
e 15 19
e 15 28
e 15 32
e 15 38
e 16 17
e 16 20
e 16 29
e 16 32
e 16 34
e 17 21
e 17 30
e 17 32
e 17 40
e 18 33
e 18 34
e 18 35
e 19 20
e 19 21
e 19 28
e 19 36
e 19 38
e 20 21
e 20 29
e 20 34
e 20 36
e 21 30
e 21 36
e 21 40
e 22 23
e 22 24
e 22 25
e 22 37
e 22 39
e 23 24
e 23 26
e 23 33
e 23 37
e 24 27
e 24 35
e 24 37
e 24 41
e 25 26
e 25 27
e 25 39
e 25 42
e 26 27
e 26 33
e 26 42
e 27 35
e 27 41
e 27 42
e 28 29
e 28 30
e 28 38
e 28 43
e 28 44
e 29 30
e 29 34
e 29 43
e 29 44
e 30 40
e 30 43
e 30 44
e 31 32
e 31 42
e 31 44
e 32 42
e 32 44
e 33 34
e 33 35
e 34 35
e 35 41
e 36 37
e 36 43
e 37 43
e 38 39
e 38 40
e 38 41
e 39 40
e 39 41
e 40 41
e 42 44
e 43 44
